; SPDX-License-Identifier: MPL-2.0
; Copyright (c) 2026 The RIINA Authors.
; Auto-generated from 02_FORMAL/coq/domains/AlgebraicEffects.v (22 validations)
; Generated by scripts/generate-full-stack.py
;
; Translation Validation for AlgebraicEffects
; Layer 9: Verifies compiler backend preserves formal semantics.
; Each assertion checks source IR ≡ target code for a proven property.

(set-logic QF_LIA)
(set-option :produce-models true)

; IR node representation
(declare-sort IRNode 0)
(declare-sort TargetNode 0)

; effectOp_eqb: source semantics (matches Coq)
(declare-fun source_effectOp_eqb () Bool)
(declare-fun target_effectOp_eqb () Bool)
(assert (= source_effectOp_eqb target_effectOp_eqb))

; in_row: source semantics (matches Coq)
(declare-fun source_in_row () Bool)
(declare-fun target_in_row () Bool)
(assert (= source_in_row target_in_row))

; row_subset: source semantics (matches Coq)
(declare-fun source_row_subset () Bool)
(declare-fun target_row_subset () Bool)
(assert (= source_row_subset target_row_subset))

; row_union: source semantics (matches Coq)
(declare-fun source_row_union () Bool)
(declare-fun target_row_union () Bool)
(assert (= source_row_union target_row_union))

; row_nodup: source semantics (matches Coq)
(declare-fun source_row_nodup () Bool)
(declare-fun target_row_nodup () Bool)
(assert (= source_row_nodup target_row_nodup))

; empty_row: source semantics (matches Coq)
(declare-fun source_empty_row () Bool)
(declare-fun target_empty_row () Bool)
(assert (= source_empty_row target_empty_row))

; getBaseTy: source semantics (matches Coq)
(declare-fun source_getBaseTy () Bool)
(declare-fun target_getBaseTy () Bool)
(assert (= source_getBaseTy target_getBaseTy))

; getEffectRow: source semantics (matches Coq)
(declare-fun source_getEffectRow () Bool)
(declare-fun target_getEffectRow () Bool)
(assert (= source_getEffectRow target_getEffectRow))

; opSignature: source semantics (matches Coq)
(declare-fun source_opSignature () Bool)
(declare-fun target_opSignature () Bool)
(assert (= source_opSignature target_opSignature))

; sig_wellformed: source semantics (matches Coq)
(declare-fun source_sig_wellformed () Bool)
(declare-fun target_sig_wellformed () Bool)
(assert (= source_sig_wellformed target_sig_wellformed))

; row_minus: source semantics (matches Coq)
(declare-fun source_row_minus () Bool)
(declare-fun target_row_minus () Bool)
(assert (= source_row_minus target_row_minus))

; effect_polymorphic_fn: source semantics (matches Coq)
(declare-fun source_effect_polymorphic_fn () Bool)
(declare-fun target_effect_polymorphic_fn () Bool)
(assert (= source_effect_polymorphic_fn target_effect_polymorphic_fn))

; all_effects_handled: source semantics (matches Coq)
(declare-fun source_all_effects_handled () Bool)
(declare-fun target_all_effects_handled () Bool)
(assert (= source_all_effects_handled target_all_effects_handled))

; respects_effects: source semantics (matches Coq)
(declare-fun source_respects_effects () Bool)
(declare-fun target_respects_effects () Bool)
(assert (= source_respects_effects target_respects_effects))

; effectOp_eqb_eq: translation preserves property (matches Coq: Lemma)
(declare-fun source_effectOp_eqb_eq () Bool)
(declare-fun target_effectOp_eqb_eq () Bool)
(assert (= source_effectOp_eqb_eq target_effectOp_eqb_eq))

; effectOp_eqb_refl: translation preserves property (matches Coq: Lemma)
(declare-fun source_effectOp_eqb_refl () Bool)
(declare-fun target_effectOp_eqb_refl () Bool)
(assert (= source_effectOp_eqb_refl target_effectOp_eqb_refl))

; in_row_In: translation preserves property (matches Coq: Lemma)
(declare-fun source_in_row_In () Bool)
(declare-fun target_in_row_In () Bool)
(assert (= source_in_row_In target_in_row_In))

; row_subset_incl: translation preserves property (matches Coq: Lemma)
(declare-fun source_row_subset_incl () Bool)
(declare-fun target_row_subset_incl () Bool)
(assert (= source_row_subset_incl target_row_subset_incl))

; row_minus_spec: translation preserves property (matches Coq: Lemma)
(declare-fun source_row_minus_spec () Bool)
(declare-fun target_row_minus_spec () Bool)
(assert (= source_row_minus_spec target_row_minus_spec))

; EFF_001_01_effect_signature_wellformedness: translation preserves property (matches Coq: Theorem)
(declare-fun source_EFF_001_01_effect_signature_wellformedness () Bool)
(declare-fun target_EFF_001_01_effect_signature_wellformedness () Bool)
(assert (= source_EFF_001_01_effect_signature_wellformedness target_EFF_001_01_effect_signature_wellformedness))

; EFF_001_02_operation_typing: translation preserves property (matches Coq: Theorem)
(declare-fun source_EFF_001_02_operation_typing () Bool)
(declare-fun target_EFF_001_02_operation_typing () Bool)
(assert (= source_EFF_001_02_operation_typing target_EFF_001_02_operation_typing))

; EFF_001_03_handler_typing: translation preserves property (matches Coq: Theorem)
(declare-fun source_EFF_001_03_handler_typing () Bool)
(declare-fun target_EFF_001_03_handler_typing () Bool)
(assert (= source_EFF_001_03_handler_typing target_EFF_001_03_handler_typing))

; EFF_001_04_effect_row_combination: translation preserves property (matches Coq: Theorem)
(declare-fun source_EFF_001_04_effect_row_combination () Bool)
(declare-fun target_EFF_001_04_effect_row_combination () Bool)
(assert (= source_EFF_001_04_effect_row_combination target_EFF_001_04_effect_row_combination))

; EFF_001_05_effect_subsumption: translation preserves property (matches Coq: Theorem)
(declare-fun source_EFF_001_05_effect_subsumption () Bool)
(declare-fun target_EFF_001_05_effect_subsumption () Bool)
(assert (= source_EFF_001_05_effect_subsumption target_EFF_001_05_effect_subsumption))

; EFF_001_06_pure_computation: translation preserves property (matches Coq: Theorem)
(declare-fun source_EFF_001_06_pure_computation () Bool)
(declare-fun target_EFF_001_06_pure_computation () Bool)
(assert (= source_EFF_001_06_pure_computation target_EFF_001_06_pure_computation))

; compose_handlers_effects: translation preserves property (matches Coq: Lemma)
(declare-fun source_compose_handlers_effects () Bool)
(declare-fun target_compose_handlers_effects () Bool)
(assert (= source_compose_handlers_effects target_compose_handlers_effects))

; EFF_001_07_handler_composition: translation preserves property (matches Coq: Theorem)
(declare-fun source_EFF_001_07_handler_composition () Bool)
(declare-fun target_EFF_001_07_handler_composition () Bool)
(assert (= source_EFF_001_07_handler_composition target_EFF_001_07_handler_composition))

; EFF_001_08_effect_polymorphism: translation preserves property (matches Coq: Theorem)
(declare-fun source_EFF_001_08_effect_polymorphism () Bool)
(declare-fun target_EFF_001_08_effect_polymorphism () Bool)
(assert (= source_EFF_001_08_effect_polymorphism target_EFF_001_08_effect_polymorphism))

; EFF_001_09_deep_handler_semantics: translation preserves property (matches Coq: Theorem)
(declare-fun source_EFF_001_09_deep_handler_semantics () Bool)
(declare-fun target_EFF_001_09_deep_handler_semantics () Bool)
(assert (= source_EFF_001_09_deep_handler_semantics target_EFF_001_09_deep_handler_semantics))

; EFF_001_10_shallow_handler_semantics: translation preserves property (matches Coq: Theorem)
(declare-fun source_EFF_001_10_shallow_handler_semantics () Bool)
(declare-fun target_EFF_001_10_shallow_handler_semantics () Bool)
(assert (= source_EFF_001_10_shallow_handler_semantics target_EFF_001_10_shallow_handler_semantics))

; EFF_001_11_effect_masking: translation preserves property (matches Coq: Theorem)
(declare-fun source_EFF_001_11_effect_masking () Bool)
(declare-fun target_EFF_001_11_effect_masking () Bool)
(assert (= source_EFF_001_11_effect_masking target_EFF_001_11_effect_masking))

; EFF_001_12_resumption_linearity: translation preserves property (matches Coq: Theorem)
(declare-fun source_EFF_001_12_resumption_linearity () Bool)
(declare-fun target_EFF_001_12_resumption_linearity () Bool)
(assert (= source_EFF_001_12_resumption_linearity target_EFF_001_12_resumption_linearity))

; EFF_001_13_effect_safety: translation preserves property (matches Coq: Theorem)
(declare-fun source_EFF_001_13_effect_safety () Bool)
(declare-fun target_EFF_001_13_effect_safety () Bool)
(assert (= source_EFF_001_13_effect_safety target_EFF_001_13_effect_safety))

; EFF_001_14_effect_parametricity: translation preserves property (matches Coq: Theorem)
(declare-fun source_EFF_001_14_effect_parametricity () Bool)
(declare-fun target_EFF_001_14_effect_parametricity () Bool)
(assert (= source_EFF_001_14_effect_parametricity target_EFF_001_14_effect_parametricity))

; eval_pure_deterministic: translation preserves property (matches Coq: Lemma)
(declare-fun source_eval_pure_deterministic () Bool)
(declare-fun target_eval_pure_deterministic () Bool)
(assert (= source_eval_pure_deterministic target_eval_pure_deterministic))

; EFF_001_15_effect_coherence: translation preserves property (matches Coq: Theorem)
(declare-fun source_EFF_001_15_effect_coherence () Bool)
(declare-fun target_EFF_001_15_effect_coherence () Bool)
(assert (= source_EFF_001_15_effect_coherence target_EFF_001_15_effect_coherence))

; Verify all translation validations are satisfiable
(check-sat)
(exit)
